 vasp.5.4.1 24Jun15 (build Jul 24 2019 15:43:00) complex

 executed on IFC18.0.1.163_CrayMP date 2022.06.14  12:35:47

 INCAR:
 POTCAR:    PAW_PBE In 08Apr2002
 POTCAR:    PAW_PBE As 22Sep2009

 POTCAR:    PAW_PBE In 08Apr2002
   VRHFIN =In: s2p1

   TITEL  = PAW_PBE In 08Apr2002
   POMASS =  114.820; ZVAL   =    3.000    mass and valenz
   ENMAX  =   95.934; ENMIN  =   71.951 eV

 POTCAR:    PAW_PBE As 22Sep2009
   VRHFIN =As: s2p3

   TITEL  = PAW_PBE As 22Sep2009
   POMASS =   74.922; ZVAL   =    5.000    mass and valenz
   ENMAX  =  208.702; ENMIN  =  156.526 eV

  PAW_PBE In 08Apr2002                  :
  PAW_PBE As 22Sep2009                  :

 POSCAR: In1 As1
  positions in direct lattice
  velocities in cartesian coordinates
 exchange correlation table for  LEXCH =        8
   RHO(1)=    0.500       N(1)  =     2000
   RHO(2)=  100.500       N(2)  =     4000

 ion  position               nearest neighbor table
   1  0.000  0.000  0.000-   2 2.62   2 2.62   2 2.62   2 2.62
   2  0.250  0.250  0.250-   1 2.62   1 2.62   1 2.62   1 2.62

  LATTYP: Found a face centered cubic cell.
 ALAT       =     6.0584000000

  Lattice vectors:

 A1 = (   0.0000000000,   3.0292000000,   3.0292000000)
 A2 = (   3.0292000000,   0.0000000000,   3.0292000000)
 A3 = (   3.0292000000,   3.0292000000,   0.0000000000)

Analysis of symmetry for initial positions (statically):
 Subroutine PRICEL returns:
 Original cell was already a primitive cell.

 Routine SETGRP: Setting up the symmetry group for a
 face centered cubic supercell.

 Subroutine GETGRP returns: Found 24 space group operations
 (whereof 24 operations were pure point group operations)
 out of a pool of 48 trial point group operations.

The static configuration has the point symmetry T_d .

Analysis of symmetry for dynamics (positions and initial velocities):
 Subroutine PRICEL returns:
 Original cell was already a primitive cell.

 Routine SETGRP: Setting up the symmetry group for a
 face centered cubic supercell.

 Subroutine GETGRP returns: Found 24 space group operations
 (whereof 24 operations were pure point group operations)
 out of a pool of 48 trial point group operations.

The dynamic configuration has the point symmetry T_d .

 Subroutine INISYM returns: Found 24 space group operations
 (whereof 24 operations are pure point group operations),
 and found     1 'primitive' translations

 KPOINTS: Line_mode KPOINTS file
  interpolating k-points between supplied coordinates
  k-points in reciprocal lattice
Space group operators:
 irot       det(A)        alpha          n_x          n_y          n_z        tau_x        tau_y        tau_z
    1     1.000000     0.000000     1.000000     0.000000     0.000000     0.000000     0.000000     0.000000
    2     1.000000   120.000000    -0.577350    -0.577350    -0.577350     0.000000     0.000000     0.000000
    3     1.000000   120.000000     0.577350     0.577350     0.577350     0.000000     0.000000     0.000000
    4    -1.000000    90.000000    -0.000000    -0.000000    -1.000000     0.000000     0.000000     0.000000
    5    -1.000000   180.000000    -0.000000     0.707107     0.707107     0.000000     0.000000     0.000000
    6    -1.000000    90.000000    -0.000000     1.000000    -0.000000     0.000000     0.000000     0.000000
    7     1.000000   180.000000    -0.000000     0.000000     1.000000     0.000000     0.000000     0.000000
    8     1.000000   120.000000    -0.577350     0.577350     0.577350     0.000000     0.000000     0.000000
    9     1.000000   120.000000    -0.577350     0.577350    -0.577350     0.000000     0.000000     0.000000
   10    -1.000000    90.000000     0.000000     0.000000     1.000000     0.000000     0.000000     0.000000
   11    -1.000000    90.000000    -1.000000     0.000000     0.000000     0.000000     0.000000     0.000000
   12    -1.000000   180.000000     0.707107     0.000000     0.707107     0.000000     0.000000     0.000000
   13     1.000000   120.000000     0.577350    -0.577350     0.577350     0.000000     0.000000     0.000000
   14     1.000000   120.000000    -0.577350    -0.577350     0.577350     0.000000     0.000000     0.000000
   15     1.000000   180.000000     1.000000     0.000000     0.000000     0.000000     0.000000     0.000000
   16    -1.000000    90.000000     0.000000    -1.000000     0.000000     0.000000     0.000000     0.000000
   17    -1.000000   180.000000     0.707107     0.707107    -0.000000     0.000000     0.000000     0.000000
   18    -1.000000    90.000000     1.000000     0.000000     0.000000     0.000000     0.000000     0.000000
   19     1.000000   120.000000     0.577350    -0.577350    -0.577350     0.000000     0.000000     0.000000
   20     1.000000   180.000000    -0.000000     1.000000    -0.000000     0.000000     0.000000     0.000000
   21     1.000000   120.000000     0.577350     0.577350    -0.577350     0.000000     0.000000     0.000000
   22    -1.000000   180.000000    -0.000000    -0.707107     0.707107     0.000000     0.000000     0.000000
   23    -1.000000   180.000000     0.707107    -0.707107     0.000000     0.000000     0.000000     0.000000
   24    -1.000000   180.000000     0.707107     0.000000    -0.707107     0.000000     0.000000     0.000000

 I would recommend the setting:
   dimension x,y,z NGX =    21 NGY =   21 NGZ =   21
 SYSTEM =  unknown system
 POSCAR =  In1 As1

 Startparameter for this run:
   NWRITE =      2    write-flag & timer
   PREC   = n         normal or accurate (medium, high low for compatibility)
   ISTART =      0    job   : 0-new  1-cont  2-samecut
   ICHARG =     11    charge: 1-file 2-atom 10-const
   ISPIN  =      1    spin polarized calculation?
   LNONCOLLINEAR =      F non collinear calculations
   LSORBIT =      F    spin-orbit coupling
   INIWAV =      1    electr: 0-lowe 1-rand  2-diag
   LASPH  =      T    aspherical Exc in radial PAW
   METAGGA=      F    non-selfconsistent MetaGGA calc.

 Electronic Relaxation 1
   ENCUT  =  400.0 eV  29.40 Ry    5.42 a.u.   6.99  6.99  6.99*2*pi/ulx,y,z
   ENINI  =  400.0     initial cutoff
   ENAUG  =  462.8 eV  augmentation charge cutoff
   NELM   =    500;   NELMIN=  2; NELMDL= -5     # of ELM steps
   EDIFF  = 0.1E-04   stopping-criterion for ELM
   LREAL  =      F    real-space projection
   NLSPLINE    = F    spline interpolate recip. space projectors
   LCOMPAT=      F    compatible to vasp.4.4
   GGA_COMPAT  = T    GGA compatible to vasp.4.4-vasp.4.6
   LMAXPAW     = -100 max onsite density
   LMAXMIX     =    2 max onsite mixed and CHGCAR
   VOSKOWN=      0    Vosko Wilk Nusair interpolation
   ROPT   =    0.00000   0.00000
 Ionic relaxation
   EDIFFG = 0.1E-03   stopping-criterion for IOM
   NSW    =      0    number of steps for IOM
   NBLOCK =      1;   KBLOCK =      1    inner block; outer block
   IBRION =     -1    ionic relax: 0-MD 1-quasi-New 2-CG
   NFREE  =      0    steps in history (QN), initial steepest desc. (CG)
   ISIF   =      2    stress and relaxation
   IWAVPR =     10    prediction:  0-non 1-charg 2-wave 3-comb
   ISYM   =      2    0-nonsym 1-usesym 2-fastsym
   LCORR  =      T    Harris-Foulkes like correction to forces

   POTIM  = 0.5000    time-step for ionic-motion
   TEIN   =    0.0    initial temperature
   TEBEG  =    0.0;   TEEND  =   0.0 temperature during run
   SMASS  =  -3.00    Nose mass-parameter (am)
   estimated Nose-frequenzy (Omega)   =  0.10E-29 period in steps =****** mass=  -0.419E-27a.u.
   SCALEE = 1.0000    scale energy and forces
   NPACO  =    256;   APACO  = 16.0  distance and # of slots for P.C.
   PSTRESS=    0.0 pullay stress

  Mass of Ions in am
   POMASS = 114.82 74.92
  Ionic Valenz
   ZVAL   =   3.00  5.00
  Atomic Wigner-Seitz radii
  virtual crystal weights
   VCA    =   1.00  1.00
   NELECT =       8.0000    total number of electrons
   NUPDOWN=      -1.0000    fix difference up-down

 DOS related values:
   EMIN   =  10.00;   EMAX   =-10.00  energy-range for DOS
   EFERMI =   0.00
   ISMEAR =     0;   SIGMA  =   0.05  broadening in eV -4-tet -1-fermi 0-gaus

 Electronic relaxation 2 (details)
   IALGO  =     68    algorithm
   LDIAG  =      T    sub-space diagonalisation (order eigenvalues)
   LSUBROT=      F    optimize rotation matrix (better conditioning)
   TURBO    =      0    0=normal 1=particle mesh
   IRESTART =      0    0=no restart 2=restart with 2 vectors
   NREBOOT  =      0    no. of reboots
   NMIN     =      0    reboot dimension
   EREF     =   0.00    reference energy to select bands
   IMIX   =      4    mixing-type and parameters
     AMIX     =   0.40;   BMIX     =  3.00
     AMIX_MAG =   1.60;   BMIX_MAG =  3.00
     AMIN     =   0.01
     WC   =   100.;   INIMIX=   1;  MIXPRE=   1;  MAXMIX= -45

 Intra band minimization:
   WEIMIN = 0.0000     energy-eigenvalue tresh-hold
   EBREAK =  0.13E-06  absolut break condition
   DEPER  =   0.30     relativ break condition

   TIME   =   0.40     timestep for ELM

  volume/ion in A,a.u.               =      27.80       187.58
  Fermi-wavevector in a.u.,A,eV,Ry     =   0.857894  1.621184 10.013641  0.735982
  Thomas-Fermi vector in A             =   1.975016

 Write flags
   LWAVE  =      F    write WAVECAR
   LCHARG =      F    write CHGCAR
   LVTOT  =      F    write LOCPOT, total local potential
   LVHAR  =      F    write LOCPOT, Hartree potential only
   LELF   =      F    write electronic localiz. function (ELF)
   LORBIT =     11    0 simple, 1 ext, 2 COOP (PROOUT)

 Dipole corrections
   LMONO  =      F    monopole corrections only (constant potential shift)
   LDIPOL =      F    correct potential (dipole corrections)
   IDIPOL =      0    1-x, 2-y, 3-z, 4-all directions
   EPSILON=  1.0000000 bulk dielectric constant

 Exchange correlation treatment:
   GGA     =    --    GGA type
   VOSKOWN=      0    Vosko Wilk Nusair interpolation
   LHFCALC =     F    Hartree Fock is set to
   LHFONE  =     F    Hartree Fock one center treatment
   AEXX    =    0.0000 exact exchange contribution

 Linear response parameters
   LEPSILON=     F    determine dielectric tensor
   LRPA    =     F    only Hartree local field effects (RPA)
   LNABLA  =     F    use nabla operator in PAW spheres
   LVEL    =     F    velocity operator in full k-point grid
   LINTERFAST=   F  fast interpolation
   KINTER  =     0    interpolate to denser k-point grid
   CSHIFT  =0.1000    complex shift for real part using Kramers Kronig
   OMEGAMAX=  -1.0    maximum frequency
   DEG_THRESHOLD= 0.2000000E-02 threshold for treating states as degnerate
   RTIME   =    0.100 relaxation time in fs

 Orbital magnetization related:
   ORBITALMAG=     F  switch on orbital magnetization
   LCHIMAG   =     F  perturbation theory with respect to B field
   DQ        =  0.001000  dq finite difference perturbation B field

 Static calculation
 charge density and potential remain constant during run
 non-spin polarized calculation
 RMM-DIIS sequential band-by-band and
  variant of blocked Davidson during initial phase
 perform sub-space diagonalisation
    before iterative eigenvector-optimisation
 no mixing
 using additional bands           16
 reciprocal scheme for non local part
[...]
 k-point  6 :   0.0510 0.0000 0.0510  plane waves:     977
 k-point  7 :   0.0612 0.0000 0.0612  plane waves:     978
 k-point  8 :   0.0714 0.0000 0.0714  plane waves:     986
 k-point  9 :   0.0816 0.0000 0.0816  plane waves:     990
 k-point 10 :   0.0918 0.0000 0.0918  plane waves:     990
 k-point 11 :   0.1020 0.0000 0.1020  plane waves:     986
 k-point 12 :   0.1122 0.0000 0.1122  plane waves:     986
 k-point 13 :   0.1224 0.0000 0.1224  plane waves:     994
 k-point 14 :   0.1327 0.0000 0.1327  plane waves:     994
 k-point 15 :   0.1429 0.0000 0.1429  plane waves:     994
 k-point 16 :   0.1531 0.0000 0.1531  plane waves:     994
 k-point 17 :   0.1633 0.0000 0.1633  plane waves:     998
 k-point 18 :   0.1735 0.0000 0.1735  plane waves:     998
 k-point 19 :   0.1837 0.0000 0.1837  plane waves:     990
 k-point 20 :   0.1939 0.0000 0.1939  plane waves:     990
 k-point 21 :   0.2041 0.0000 0.2041  plane waves:     990
 k-point 22 :   0.2143 0.0000 0.2143  plane waves:     998
 k-point 23 :   0.2245 0.0000 0.2245  plane waves:     998
 k-point 24 :   0.2347 0.0000 0.2347  plane waves:     998
 k-point 25 :   0.2449 0.0000 0.2449  plane waves:     998
 k-point 26 :   0.2551 0.0000 0.2551  plane waves:     998
 k-point 27 :   0.2653 0.0000 0.2653  plane waves:     998
 k-point 28 :   0.2755 0.0000 0.2755  plane waves:    1010
 k-point 29 :   0.2857 0.0000 0.2857  plane waves:    1018
 k-point 30 :   0.2959 0.0000 0.2959  plane waves:    1018
 k-point 31 :   0.3061 0.0000 0.3061  plane waves:    1018
 k-point 32 :   0.3163 0.0000 0.3163  plane waves:    1018
 k-point 33 :   0.3265 0.0000 0.3265  plane waves:    1018
 k-point 34 :   0.3367 0.0000 0.3367  plane waves:    1018
 k-point 35 :   0.3469 0.0000 0.3469  plane waves:    1018
 k-point 36 :   0.3571 0.0000 0.3571  plane waves:    1026
 k-point 37 :   0.3673 0.0000 0.3673  plane waves:    1026
 k-point 38 :   0.3776 0.0000 0.3776  plane waves:    1018
 k-point 39 :   0.3878 0.0000 0.3878  plane waves:    1018
 k-point 40 :   0.3980 0.0000 0.3980  plane waves:    1014
 k-point 41 :   0.4082 0.0000 0.4082  plane waves:    1006
 k-point 42 :   0.4184 0.0000 0.4184  plane waves:    1006
 k-point 43 :   0.4286 0.0000 0.4286  plane waves:    1006
 k-point 44 :   0.4388 0.0000 0.4388  plane waves:    1006
 k-point 45 :   0.4490 0.0000 0.4490  plane waves:    1006
 k-point 46 :   0.4592 0.0000 0.4592  plane waves:    1006
 k-point 47 :   0.4694 0.0000 0.4694  plane waves:    1006
 k-point 48 :   0.4796 0.0000 0.4796  plane waves:    1002
 k-point 49 :   0.4898 0.0000 0.4898  plane waves:     998
 k-point 50 :   0.5000 0.0000 0.5000  plane waves:     998
 k-point 51 :   0.5000 0.0000 0.5000  plane waves:     998
 k-point 52 :   0.5000 0.0051 0.5051  plane waves:     998
 k-point 53 :   0.5000 0.0102 0.5102  plane waves:     998
 k-point 54 :   0.5000 0.0153 0.5153  plane waves:    1004
 k-point 55 :   0.5000 0.0204 0.5204  plane waves:    1008
 k-point 56 :   0.5000 0.0255 0.5255  plane waves:    1004
 k-point 57 :   0.5000 0.0306 0.5306  plane waves:    1004
 k-point 58 :   0.5000 0.0357 0.5357  plane waves:    1008
 k-point 59 :   0.5000 0.0408 0.5408  plane waves:    1006
 k-point 60 :   0.5000 0.0459 0.5459  plane waves:    1006
[...]
 k-point 85 :   0.5000 0.1735 0.6735  plane waves:    1016
 k-point 86 :   0.5000 0.1786 0.6786  plane waves:    1016
 k-point 87 :   0.5000 0.1837 0.6837  plane waves:    1016
 k-point 88 :   0.5000 0.1888 0.6888  plane waves:    1020
 k-point 89 :   0.5000 0.1939 0.6939  plane waves:    1020
 k-point 90 :   0.5000 0.1990 0.6990  plane waves:    1020
 k-point 91 :   0.5000 0.2041 0.7041  plane waves:    1020
 k-point 92 :   0.5000 0.2092 0.7092  plane waves:    1018
 k-point 93 :   0.5000 0.2143 0.7143  plane waves:    1018
 k-point 94 :   0.5000 0.2194 0.7194  plane waves:    1018
 k-point 95 :   0.5000 0.2245 0.7245  plane waves:    1018
 k-point 96 :   0.5000 0.2296 0.7296  plane waves:    1026
 k-point 97 :   0.5000 0.2347 0.7347  plane waves:    1026
 k-point 98 :   0.5000 0.2398 0.7398  plane waves:    1036
 k-point 99 :   0.5000 0.2449 0.7449  plane waves:    1036
 k-point ** :   0.5000 0.2500 0.7500  plane waves:    1036
 k-point ** :   0.5000 0.2500 0.7500  plane waves:    1036
 k-point ** :   0.5000 0.2551 0.7449  plane waves:    1036
 k-point ** :   0.5000 0.2602 0.7398  plane waves:    1028
 k-point ** :   0.5000 0.2653 0.7347  plane waves:    1024
 k-point ** :   0.5000 0.2704 0.7296  plane waves:    1020
 k-point ** :   0.5000 0.2755 0.7245  plane waves:    1020
 k-point ** :   0.5000 0.2806 0.7194  plane waves:    1020
 k-point ** :   0.5000 0.2857 0.7143  plane waves:    1022
 k-point ** :   0.5000 0.2908 0.7092  plane waves:    1022
 k-point ** :   0.5000 0.2959 0.7041  plane waves:    1020
 k-point ** :   0.5000 0.3010 0.6990  plane waves:    1020
 k-point ** :   0.5000 0.3061 0.6939  plane waves:    1018
 k-point ** :   0.5000 0.3112 0.6888  plane waves:    1018
 k-point ** :   0.5000 0.3163 0.6837  plane waves:    1014
 k-point ** :   0.5000 0.3214 0.6786  plane waves:    1016
 k-point ** :   0.5000 0.3265 0.6735  plane waves:    1016
 k-point ** :   0.5000 0.3316 0.6684  plane waves:    1010
 k-point ** :   0.5000 0.3367 0.6633  plane waves:    1012
 k-point ** :   0.5000 0.3418 0.6582  plane waves:    1012
 k-point ** :   0.5000 0.3469 0.6531  plane waves:    1012
 k-point ** :   0.5000 0.3520 0.6480  plane waves:    1010
 k-point ** :   0.5000 0.3571 0.6429  plane waves:    1016
 k-point ** :   0.5000 0.3622 0.6378  plane waves:    1018
 k-point ** :   0.5000 0.3673 0.6327  plane waves:    1016
 k-point ** :   0.5000 0.3724 0.6276  plane waves:    1010
 k-point ** :   0.5000 0.3776 0.6224  plane waves:    1010
 k-point ** :   0.5000 0.3827 0.6173  plane waves:    1016
 k-point ** :   0.5000 0.3878 0.6122  plane waves:    1018
 k-point ** :   0.5000 0.3929 0.6071  plane waves:    1014
 k-point ** :   0.5000 0.3980 0.6020  plane waves:    1014
 k-point ** :   0.5000 0.4031 0.5969  plane waves:    1016
 k-point ** :   0.5000 0.4082 0.5918  plane waves:    1014
 k-point ** :   0.5000 0.4133 0.5867  plane waves:    1016
 k-point ** :   0.5000 0.4184 0.5816  plane waves:    1016
 k-point ** :   0.5000 0.4235 0.5765  plane waves:    1016
 k-point ** :   0.5000 0.4286 0.5714  plane waves:    1010
 k-point ** :   0.5000 0.4337 0.5663  plane waves:    1012
 k-point ** :   0.5000 0.4388 0.5612  plane waves:    1012
 k-point ** :   0.5000 0.4439 0.5561  plane waves:    1010
 k-point ** :   0.5000 0.4490 0.5510  plane waves:    1010
 k-point ** :   0.5000 0.4541 0.5459  plane waves:    1006
 k-point ** :   0.5000 0.4592 0.5408  plane waves:    1006
 k-point ** :   0.5000 0.4643 0.5357  plane waves:    1002
 k-point ** :   0.5000 0.4694 0.5306  plane waves:    1002
 k-point ** :   0.5000 0.4745 0.5255  plane waves:    1002
 k-point ** :   0.5000 0.4796 0.5204  plane waves:    1002
 k-point ** :   0.5000 0.4847 0.5153  plane waves:    1008
 k-point ** :   0.5000 0.4898 0.5102  plane waves:    1008
 k-point ** :   0.5000 0.4949 0.5051  plane waves:    1008
 k-point ** :   0.5000 0.5000 0.5000  plane waves:    1008
 k-point ** :   0.5000 0.5000 0.5000  plane waves:    1008
 k-point ** :   0.4898 0.4898 0.4898  plane waves:    1008
 k-point ** :   0.4796 0.4796 0.4796  plane waves:    1008
 k-point ** :   0.4694 0.4694 0.4694  plane waves:    1008
 k-point ** :   0.4592 0.4592 0.4592  plane waves:    1020
 k-point ** :   0.4490 0.4490 0.4490  plane waves:    1017
 k-point ** :   0.4388 0.4388 0.4388  plane waves:    1017
 k-point ** :   0.4286 0.4286 0.4286  plane waves:    1017
 k-point ** :   0.4184 0.4184 0.4184  plane waves:    1017
[...]
 k-point ** :   0.2679 0.2679 0.5357  plane waves:    1015
 k-point ** :   0.2755 0.2755 0.5510  plane waves:    1011
 k-point ** :   0.2832 0.2832 0.5663  plane waves:    1011
 k-point ** :   0.2908 0.2908 0.5816  plane waves:    1007
 k-point ** :   0.2985 0.2985 0.5969  plane waves:    1011
 k-point ** :   0.3061 0.3061 0.6122  plane waves:    1011
 k-point ** :   0.3138 0.3138 0.6276  plane waves:    1011
 k-point ** :   0.3214 0.3214 0.6429  plane waves:    1011
 k-point ** :   0.3291 0.3291 0.6582  plane waves:    1015
 k-point ** :   0.3367 0.3367 0.6735  plane waves:    1015
 k-point ** :   0.3444 0.3444 0.6888  plane waves:    1007
 k-point ** :   0.3520 0.3520 0.7041  plane waves:    1007
 k-point ** :   0.3597 0.3597 0.7194  plane waves:    1011
 k-point ** :   0.3673 0.3673 0.7347  plane waves:    1011
 k-point ** :   0.3750 0.3750 0.7500  plane waves:    1011

 maximum and minimum number of plane-waves per node :      1036      965

 maximum number of plane-waves:      1036
 maximum index in each direction:
   IXMAX=    6   IYMAX=    6   IZMAX=    6
   IXMIN=   -7   IYMIN=   -7   IZMIN=   -7

 WARNING: aliasing errors must be expected set NGX to  28 to avoid them
 WARNING: aliasing errors must be expected set NGY to  28 to avoid them
 WARNING: aliasing errors must be expected set NGZ to  28 to avoid them
 aliasing errors are usually negligible using standard VASP settings
 and one can safely disregard these warnings

 serial   3D FFT for wavefunctions
 parallel 3D FFT for charge:
    minimum data exchange during FFTs selected (reduces bandwidth)

 initial charge density was supplied:
 number of electron       8.0000003 magnetization
 keeping initial charge density in first step

 Maximum index for augmentation-charges         6795 (set IRDMAX)

 First call to EWALD:  gamma=   0.464
 Maximum number of real-space cells 3x 3x 3
 Maximum number of reciprocal cells 3x 3x 3

 FEWALD executed in parallel

----------------------------------------- Iteration    1(   1)  ---------------------------------------

 eigenvalue-minimisations  : 10008
 total energy-change (2. order) : 0.1849270E+02  (-0.2346439E+03)
 number of electron       8.0000003 magnetization
 augmentation part        8.0000003 magnetization

 Free energy of the ion-electron system (eV)
  alpha Z        PSCENC =         6.67624893
  Ewald energy   TEWEN  =      -213.84743004
  -Hartree energ DENC   =       -25.54878675
  -exchange      EXHF   =         0.00000000
  -V(xc)+E(xc)   XCENC  =       -66.88262928
  PAW double counting   =       532.69522183     -452.39149593
  entropy T*S    EENTRO =        -0.00159825
  eigenvalues    EBANDS =        13.81696020
  atomic energy  EATOM  =       223.97621261
  Solvation  Ediel_sol  =         0.00000000
  free energy    TOTEN  =        18.49270332 eV

  energy without entropy =       18.49430157  energy(sigma->0) =       18.49350244

[...]

 eigenvalue-minimisations  : 12824
 total energy-change (2. order) :-0.2305871E+02  (-0.2179200E+02)
 number of electron       8.0000003 magnetization
 augmentation part        8.0000003 magnetization

[...]

----------------------------------------- Iteration    1(   6)  ---------------------------------------

 eigenvalue-minimisations  :  6271
 total energy-change (2. order) :-0.7558731E-07  (-0.7565749E-07)
 number of electron       8.0000003 magnetization
 augmentation part        8.0000003 magnetization

 Free energy of the ion-electron system (eV)
  alpha Z        PSCENC =         6.67624893
  Ewald energy   TEWEN  =      -213.84743004
  -Hartree energ DENC   =       -25.54878675
  -exchange      EXHF   =         0.00000000
  -V(xc)+E(xc)   XCENC  =       -66.88262928
  PAW double counting   =       532.69522183     -452.39149593
  entropy T*S    EENTRO =        -0.00172261
  eigenvalues    EBANDS =       -10.24449019
  atomic energy  EATOM  =       223.97621261
  Solvation  Ediel_sol  =         0.00000000
  free energy    TOTEN  =        -5.56887143 eV

  energy without entropy =       -5.56714882  energy(sigma->0) =       -5.56801012

 average (electrostatic) potential at core
  the test charge radii are     1.4837  1.0621
  (the norm of the test charge is              1.0000)
       1 -39.0470       2 -50.7976

 E-fermi :   3.2991     XC(G=0):  -8.8397     alpha+bet : -8.8632

 k-point     1 :       0.0000    0.0000    0.0000
  band No.  band energies     occupation
      1      -8.5440      2.00000
      2       3.0928      2.00000
      3       3.2620      1.70561
      4       3.2620      1.70561
      5       3.2620      1.70560
      6       7.2109      0.00000
      7       7.2109      0.00000
      8       7.2109      0.00000
      9      10.7876      0.00000
     10      12.7781      0.00000
     11      12.7781      0.00000
     12      13.6430      0.00000
     13      13.6430      0.00000
     14      13.6430      0.00000
     15      16.2027      0.00000
     16      24.6255      0.00000
     17      24.6258      0.00000
     18      24.6258      0.00000
     19      25.7586      0.00000
     20      25.7877      0.00000

[...]

 k-point   250 :       0.3750    0.3750    0.7500
  band No.  band energies     occupation
      1      -6.8001      2.00000
      2      -2.3727      2.00000
      3       0.0237      2.00000
      4       1.3382      2.00000
      5       5.4070      0.00000
      6       7.5513      0.00000
      7      10.5727      0.00000
      8      10.6686      0.00000
      9      11.0100      0.00000
     10      13.1172      0.00000
     11      16.0333      0.00000
     12      17.2581      0.00000
     13      17.2772      0.00000
     14      17.6937      0.00000
     15      18.5068      0.00000
     16      18.7852      0.00000
     17      21.3814      0.00000
     18      21.5083      0.00000
     19      21.9410      0.00000
     20      22.1875      0.00000

 soft charge-density along one line, spin component           1
         0         1         2         3         4         5         6         7         8         9
 total charge-density along one line

------------------------ aborting loop because EDIFF is reached ----------------------------------------

 total charge

# of ion     s       p       d       tot
  1        1.173   1.304   0.265   2.742
  2        1.223   1.689   0.016   2.928
tot        2.396   2.992   0.281   5.670

  FORCE on cell =-STRESS in cart. coord.  units (eV):
  Direction    XX          YY          ZZ          XY          YZ          ZX
  Alpha Z     6.67625     6.67625     6.67625
  Ewald     -71.28251   -71.28251   -71.28251    -0.00000     0.00000     0.00000
  Hartree     9.29543     9.29543     9.29543     0.00000     0.00000     0.00000
  E(xc)     -31.50286   -31.50286   -31.50286    -0.00000    -0.00000    -0.00000
  Local     -34.41375   -34.41375   -34.41375     0.00002     0.00002     0.00002
  n-local    71.21459    67.95487    70.23337    -1.80002    -0.74888    -0.97479
  augment    -8.20944    -8.20944    -8.20944    -0.00002    -0.00002    -0.00002
  Kinetic    66.46300    62.03188    66.80371    -2.89984    -1.64116    -1.93925
  Fock        0.00000     0.00000     0.00000     0.00000     0.00000     0.00000
  Total       5.46359     5.46359     5.46359     0.00000    -0.00000     0.00000
  in kB     157.46177   157.46177   157.46177     0.00000    -0.00000     0.00000

 VOLUME and BASIS-vectors are now :
  energy-cutoff  :      400.00
  volume of cell :       55.59
      direct lattice vectors                 reciprocal lattice vectors
     0.000000000  3.029200000  3.029200000    -0.165060082  0.165060082  0.165060082
     3.029200000  0.000000000  3.029200000     0.165060082 -0.165060082  0.165060082
     3.029200000  3.029200000  0.000000000     0.165060082  0.165060082 -0.165060082

  length of vectors
     4.283935723  4.283935723  4.283935723     0.285892448  0.285892448  0.285892448

 FORCES acting on ions
    electron-ion (+dipol)            ewald-force                    non-local-force                 convergence-correction
   -.488E-06 -.488E-06 -.488E-06   0.134E-14 0.995E-15 0.341E-14   0.212E-15 0.171E-15 0.883E-16   0.367E-09 0.367E-09 0.367E-09
   0.355E-06 0.355E-06 0.355E-06   -.131E-14 -.620E-15 -.337E-14   0.300E-16 0.568E-17 0.452E-16   0.290E-08 0.290E-08 0.290E-08
   -.132E-06 -.132E-06 -.132E-06   0.300E-16 0.375E-15 0.444E-16   0.242E-15 0.176E-15 0.133E-15   0.327E-08 0.327E-08 0.327E-08

 POSITION                                       TOTAL-FORCE (eV/Angst)
      0.00000      0.00000      0.00000         0.000000     -0.000000     -0.000000
      1.51460      1.51460      1.51460        -0.000000      0.000000      0.000000
    total drift:                               -0.000000     -0.000000     -0.000000

  FREE ENERGIE OF THE ION-ELECTRON SYSTEM (eV)
  free  energy   TOTEN  =        -5.56887143 eV

  energy  without entropy=       -5.56714882  energy(sigma->0) =       -5.56801012

 total charge

# of ion     s       p       d       tot
  1        1.173   1.304   0.265   2.742
  2        1.223   1.689   0.016   2.928
tot        2.396   2.992   0.281   5.670